outputs/case_17.model.txt
violation_flag = True
penalty_measures_issued = False
penalty_measures = False
violation = True
penalty = False